(set-info :source |printed by MathSAT|)
(declare-fun call__main_.call_PosEdge.flby () Bool)
(declare-fun param_igsw.next () Bool)
(declare-fun call_PosEdge3.flby () Bool)
(declare-fun ite.next () Bool)
(declare-fun param_gearok.next () Bool)
(declare-fun call__main_.call_cc_allowed.call_MoreThanTwoSec.flby.next () Bool)
(declare-fun call__main_.call_Edge._Y_.next () Bool)
(declare-fun call__main_.ccall () Bool)
(declare-fun call_PosEdge5.flby.next () Bool)
(declare-fun call__main_.param () Bool)
(declare-fun call_PosEdge3.flby.next () Bool)
(declare-fun call__main_.cca () Bool)
(declare-fun call_Edge.flby.next () Bool)
(declare-fun param_bpa.next () Bool)
(declare-fun call_PosEdge3._Y_.next () Bool)
(declare-fun call__main_.call_cc_allowed.call_MoreThanTwoSec.flby () Bool)
(declare-fun call__main_.ite4.next () Bool)
(declare-fun ccont.next () Bool)
(declare-fun call_cc_allowed.call_MoreThanOneSec._Y_.next () Bool)
(declare-fun call__main_.ite3 () Bool)
(declare-fun param_sdok () Bool)
(declare-fun call__main_.call_Edge.flby () Bool)
(declare-fun call_cc_allowed.call_MoreThanOneSec.flby.next () Bool)
(declare-fun p2 () Bool)
(declare-fun p4.next () Bool)
(declare-fun call__main_.call_one_button_accept.call_one_button.ob.next () Bool)
(declare-fun call_PosEdge4.flby.next () Bool)
(declare-fun param_sdok.next () Bool)
(declare-fun ite4 () Bool)
(declare-fun call_PosEdge._Y_ () Bool)
(declare-fun param_ccd.next () Bool)
(declare-fun call__main_.call_one_button_accept.call_AtLeastOnceSince.flby () Bool)
(declare-fun call__main_.call_one_button_accept.ob.next () Bool)
(declare-fun call_cc_allowed.call_MoreThanTwoSec.flby2 () Bool)
(declare-fun call__main_.flby () Bool)
(declare-fun call_PosEdge5.flby () Bool)
(declare-fun call__main_.call_PosEdge2._Y_ () Bool)
(declare-fun call__main_.call_one_button_accept.call_PosEdge.flby.next () Bool)
(declare-fun param_bpa () Bool)
(declare-fun call_PosEdge4._Y_.next () Bool)
(declare-fun call_cc_allowed.call_MoreThanTwoSec._Y_.next () Bool)
(declare-fun call__main_.call_one_button_accept.oba () Bool)
(declare-fun call_cc_allowed.call_MoreThanOneSec._Y_ () Bool)
(declare-fun ite2.next () Bool)
(declare-fun call__main_.call_cc_allowed.call_MoreThanTwoSec._Y_.next () Bool)
(declare-fun call__main_.call_PosEdge._Y_.next () Bool)
(declare-fun param_qfok.next () Bool)
(declare-fun param_cccanc.next () Bool)
(declare-fun call_cc_allowed.call_MoreThanTwoSec._Y_ () Bool)
(declare-fun call__main_.call_one_button_accept.call_AtLeastOnceSince.flby.next () Bool)
(declare-fun call__main_.call_cc_allowed.call_MoreThanTwoSec.flby2 () Bool)
(declare-fun call__main_.call_one_button_accept.call_prev_no_button.pnb () Bool)
(declare-fun param_cccanc () Bool)
(declare-fun call_Edge2._Y_.next () Bool)
(declare-fun call__main_.call_Edge.flby.next () Bool)
(declare-fun call_PosEdge3._Y_ () Bool)
(declare-fun call__main_.call_one_button_accept.ite2 () Bool)
(declare-fun param_ccseti () Bool)
(declare-fun param_battok () Bool)
(declare-fun p3 () Bool)
(declare-fun call_Edge2.flby () Bool)
(declare-fun call_PosEdge2.flby.next () Bool)
(declare-fun call__main_.ite.next () Bool)
(declare-fun call__main_.call_one_button_accept.call_prev_no_button.flby () Bool)
(declare-fun ite3 () Bool)
(declare-fun _OK_.next () Bool)
(declare-fun call__main_.call_one_button_accept.ite.next () Bool)
(declare-fun call_PosEdge4.flby () Bool)
(declare-fun call__main_.call_one_button_accept.pnb () Bool)
(declare-fun p1.next () Bool)
(declare-fun call__main_.call_cc_allowed.call_MoreThanOneSec.flby () Bool)
(declare-fun call__main_.call_one_button_accept.oba.next () Bool)
(declare-fun ite () Bool)
(declare-fun flby () Bool)
(declare-fun param_ccsetd.next () Bool)
(declare-fun call_PosEdge2._Y_ () Bool)
(declare-fun call_cc_allowed.call_MoreThanTwoSec.flby () Bool)
(declare-fun call_PosEdge2.flby () Bool)
(declare-fun call__main_.ccall.next () Bool)
(declare-fun call__main_.call_one_button_accept.call_PosEdge._Y_ () Bool)
(declare-fun call_PosEdge6._Y_ () Bool)
(declare-fun _OK_ () Bool)
(declare-fun call__main_.call_PosEdge.flby.next () Bool)
(declare-fun call__main_.flby2 () Bool)
(declare-fun call__main_.call_PosEdge2.flby () Bool)
(declare-fun call_PosEdge2._Y_.next () Bool)
(declare-fun call__main_.ccont () Bool)
(declare-fun call_cc_allowed.ccall.next () Bool)
(declare-fun call__main_.call_cc_allowed.call_MoreThanOneSec.flby.next () Bool)
(declare-fun ite2 () Bool)
(declare-fun call__main_.call_one_button_accept.call_AtLeastOnceSince.XsinceY.next () Bool)
(declare-fun call_Edge._Y_ () Bool)
(declare-fun cca.next () Bool)
(declare-fun param_ccsetd () Bool)
(declare-fun call_PosEdge._Y_.next () Bool)
(declare-fun call__main_.ite4 () Bool)
(declare-fun call__main_.call_Edge._Y_ () Bool)
(declare-fun call_PosEdge5._Y_.next () Bool)
(declare-fun call_Edge2.flby.next () Bool)
(declare-fun call__main_.call_one_button_accept.call_one_button.ob () Bool)
(declare-fun p2.next () Bool)
(declare-fun env () Bool)
(declare-fun call__main_.ite2.next () Bool)
(declare-fun call__main_.call_one_button_accept.ob () Bool)
(declare-fun param_battok.next () Bool)
(declare-fun cca () Bool)
(declare-fun param_accok () Bool)
(declare-fun call__main_.call_cc_allowed.ccall () Bool)
(declare-fun call__main_.call_one_button_accept.ite () Bool)
(declare-fun call_PosEdge6.flby () Bool)
(declare-fun call_Edge._Y_.next () Bool)
(declare-fun ite3.next () Bool)
(declare-fun call_PosEdge4._Y_ () Bool)
(declare-fun call__main_.call_one_button_accept.call_PosEdge._Y_.next () Bool)
(declare-fun ccont () Bool)
(declare-fun call__main_.call_cc_allowed.call_MoreThanTwoSec._Y_ () Bool)
(declare-fun call__main_.call_one_button_accept.call_AtLeastOnceSince.ite () Bool)
(declare-fun param_accok.next () Bool)
(declare-fun call__main_.call_cc_allowed.call_MoreThanOneSec._Y_ () Bool)
(declare-fun call__main_.param.next () Bool)
(declare-fun param_gearok () Bool)
(declare-fun param_cconoff () Bool)
(declare-fun call__main_.call_one_button_accept.call_AtLeastOnceSince.XsinceY () Bool)
(declare-fun call__main_.ite3.next () Bool)
(declare-fun call__main_.call_PosEdge2._Y_.next () Bool)
(declare-fun ite4.next () Bool)
(declare-fun param_ccseti.next () Bool)
(declare-fun call__main_.call_cc_allowed.call_MoreThanTwoSec.flby2.next () Bool)
(declare-fun param_ccr.next () Bool)
(declare-fun call_cc_allowed.call_MoreThanTwoSec.flby2.next () Bool)
(declare-fun param_ccd () Bool)
(declare-fun call_PosEdge.flby.next () Bool)
(declare-fun p3.next () Bool)
(declare-fun call_cc_allowed.call_MoreThanTwoSec.flby.next () Bool)
(declare-fun call__main_.call_PosEdge._Y_ () Bool)
(declare-fun call__main_.flby.next () Bool)
(declare-fun call__main_.call_PosEdge2.flby.next () Bool)
(declare-fun call_Edge.flby () Bool)
(declare-fun call__main_.ccont.next () Bool)
(declare-fun param_cconoff.next () Bool)
(declare-fun call_cc_allowed.call_MoreThanOneSec.flby () Bool)
(declare-fun call_Edge2._Y_ () Bool)
(declare-fun param_ccr () Bool)
(declare-fun param_igsw () Bool)
(declare-fun param_vs () Int)
(declare-fun call_PosEdge6._Y_.next () Bool)
(declare-fun call_PosEdge5._Y_ () Bool)
(declare-fun call_PosEdge.flby () Bool)
(declare-fun flby.next () Bool)
(declare-fun call__main_.flby2.next () Bool)
(declare-fun call__main_.call_one_button_accept.call_PosEdge.flby () Bool)
(declare-fun param_qfok () Bool)
(declare-fun call__main_.call_one_button_accept.call_prev_no_button.flby.next () Bool)
(declare-fun call_PosEdge6.flby.next () Bool)
(declare-fun call__main_.call_one_button_accept.call_prev_no_button.pnb.next () Bool)
(declare-fun call__main_.call_cc_allowed.ccall.next () Bool)
(declare-fun p1 () Bool)
(declare-fun p4 () Bool)
(declare-fun param_vs.next () Int)
(declare-fun call__main_.cca.next () Bool)
(declare-fun call__main_.call_one_button_accept.pnb.next () Bool)
(declare-fun call__main_.call_cc_allowed.call_MoreThanOneSec._Y_.next () Bool)
(declare-fun call__main_.call_one_button_accept.call_AtLeastOnceSince.ite.next () Bool)
(declare-fun call__main_.call_one_button_accept.ite2.next () Bool)
(declare-fun env.next () Bool)
(declare-fun call_cc_allowed.ccall () Bool)
(define-fun .def_1271 () Bool (= call__main_.call_one_button_accept.call_AtLeastOnceSince.XsinceY.next call__main_.call_one_button_accept.call_AtLeastOnceSince.ite.next))
(define-fun .def_1268 () Bool (= call__main_.call_one_button_accept.call_PosEdge.flby.next call__main_.call_one_button_accept.call_PosEdge._Y_.next))
(define-fun .def_1266 () Bool (= call__main_.call_one_button_accept.call_AtLeastOnceSince.flby.next call__main_.call_one_button_accept.call_AtLeastOnceSince.ite.next))
(define-fun .def_1267 () Bool (or call__main_.call_one_button_accept.call_PosEdge._Y_.next .def_1266))
(define-fun .def_1269 () Bool (and .def_1267 .def_1268))
(define-fun .def_1255 () Bool (not param_ccsetd.next))
(define-fun .def_1260 () Bool (and param_ccseti.next .def_1255))
(define-fun .def_1141 () Bool (not param_ccr.next))
(define-fun .def_1261 () Bool (and .def_1141 .def_1260))
(define-fun .def_1254 () Bool (not param_ccseti.next))
(define-fun .def_1258 () Bool (and param_ccsetd.next .def_1254))
(define-fun .def_1259 () Bool (and .def_1141 .def_1258))
(define-fun .def_1262 () Bool (or .def_1259 .def_1261))
(define-fun .def_1256 () Bool (and .def_1254 .def_1255))
(define-fun .def_1257 () Bool (and param_ccr.next .def_1256))
(define-fun .def_1263 () Bool (or .def_1257 .def_1262))
(define-fun .def_1264 () Bool (= call__main_.call_one_button_accept.call_one_button.ob.next .def_1263))
(define-fun .def_1252 () Bool (= call__main_.call_one_button_accept.call_prev_no_button.flby.next call__main_.call_one_button_accept.call_prev_no_button.pnb.next))
(define-fun .def_1250 () Bool (= call__main_.call_one_button_accept.pnb.next call__main_.call_one_button_accept.call_prev_no_button.pnb.next))
(define-fun .def_1246 () Bool (= call__main_.call_one_button_accept.ob.next call__main_.call_one_button_accept.call_one_button.ob.next))
(define-fun .def_1242 () Bool (= call__main_.call_one_button_accept.ite.next call__main_.call_one_button_accept.ite2.next))
(define-fun .def_1239 () Bool (and call__main_.call_one_button_accept.ob.next call__main_.call_one_button_accept.pnb.next))
(define-fun .def_1241 () Bool (not .def_1239))
(define-fun .def_1243 () Bool (or .def_1241 .def_1242))
(define-fun .def_1236 () Bool (not call__main_.call_one_button_accept.ite2.next))
(define-fun .def_1240 () Bool (or .def_1236 .def_1239))
(define-fun .def_1244 () Bool (and .def_1240 .def_1243))
(define-fun .def_1247 () Bool (and .def_1244 .def_1246))
(define-fun .def_1234 () Bool (= call__main_.call_one_button_accept.oba.next call__main_.call_one_button_accept.ite2.next))
(define-fun .def_1231 () Bool (= call__main_.call_cc_allowed.call_MoreThanTwoSec.flby2.next call__main_.call_cc_allowed.call_MoreThanTwoSec._Y_.next))
(define-fun .def_1229 () Bool (= call__main_.call_cc_allowed.call_MoreThanOneSec.flby.next call__main_.call_cc_allowed.call_MoreThanOneSec._Y_.next))
(define-fun .def_1155 () Bool (not param_bpa.next))
(define-fun .def_1216 () Bool (and call__main_.ccont.next .def_1155))
(define-fun .def_1217 () Bool (and param_battok.next .def_1216))
(define-fun .def_1218 () Bool (and param_gearok.next .def_1217))
(define-fun .def_1219 () Bool (and param_qfok.next .def_1218))
(define-fun .def_1221 () Bool (and .def_1219 call__main_.call_cc_allowed.call_MoreThanOneSec._Y_.next))
(define-fun .def_1166 () Bool (<= 35 param_vs.next))
(define-fun .def_1222 () Bool (and .def_1166 .def_1221))
(define-fun .def_1168 () Bool (<= param_vs.next 200))
(define-fun .def_1223 () Bool (and .def_1168 .def_1222))
(define-fun .def_1225 () Bool (and .def_1223 call__main_.call_cc_allowed.call_MoreThanTwoSec._Y_.next))
(define-fun .def_1173 () Bool (not param_cccanc.next))
(define-fun .def_1226 () Bool (and .def_1173 .def_1225))
(define-fun .def_1227 () Bool (= call__main_.call_cc_allowed.ccall.next .def_1226))
(define-fun .def_1214 () Bool (= call__main_.call_PosEdge2._Y_.next call__main_.call_PosEdge2.flby.next))
(define-fun .def_1212 () Bool (= call__main_.call_PosEdge._Y_.next call__main_.call_PosEdge.flby.next))
(define-fun .def_1210 () Bool (= call__main_.call_Edge._Y_.next call__main_.call_Edge.flby.next))
(define-fun .def_1207 () Bool (not call__main_.call_one_button_accept.call_PosEdge._Y_.next))
(define-fun .def_1205 () Bool (= call__main_.param.next call__main_.call_one_button_accept.call_AtLeastOnceSince.ite.next))
(define-fun .def_1208 () Bool (or .def_1205 .def_1207))
(define-fun .def_1201 () Bool (= call__main_.ccall.next call__main_.call_cc_allowed.ccall.next))
(define-fun .def_1195 () Bool (and call__main_.ccall.next call__main_.call_one_button_accept.oba.next))
(define-fun .def_1197 () Bool (not .def_1195))
(define-fun .def_1198 () Bool (or call__main_.ite4.next .def_1197))
(define-fun .def_1193 () Bool (= call__main_.ite3.next call__main_.ite4.next))
(define-fun .def_1196 () Bool (or .def_1193 .def_1195))
(define-fun .def_1199 () Bool (and .def_1196 .def_1198))
(define-fun .def_1202 () Bool (and .def_1199 .def_1201))
(define-fun .def_1191 () Bool (= call__main_.flby2.next call__main_.cca.next))
(define-fun .def_1189 () Bool (= call__main_.flby.next call__main_.ccont.next))
(define-fun .def_1187 () Bool (= call_Edge2.flby.next call_Edge2._Y_.next))
(define-fun .def_1185 () Bool (= call_PosEdge6.flby.next call_PosEdge6._Y_.next))
(define-fun .def_1183 () Bool (= call_Edge.flby.next call_Edge._Y_.next))
(define-fun .def_1181 () Bool (= call_PosEdge5.flby.next call_PosEdge5._Y_.next))
(define-fun .def_1179 () Bool (= call_cc_allowed.call_MoreThanTwoSec.flby2.next call_cc_allowed.call_MoreThanTwoSec._Y_.next))
(define-fun .def_1177 () Bool (= call_cc_allowed.call_MoreThanOneSec.flby.next call_cc_allowed.call_MoreThanOneSec._Y_.next))
(define-fun .def_1156 () Bool (and ccont.next .def_1155))
(define-fun .def_1158 () Bool (and .def_1156 param_battok.next))
(define-fun .def_1160 () Bool (and .def_1158 param_gearok.next))
(define-fun .def_1162 () Bool (and .def_1160 param_qfok.next))
(define-fun .def_1164 () Bool (and .def_1162 call_cc_allowed.call_MoreThanOneSec._Y_.next))
(define-fun .def_1167 () Bool (and .def_1164 .def_1166))
(define-fun .def_1169 () Bool (and .def_1167 .def_1168))
(define-fun .def_1171 () Bool (and .def_1169 call_cc_allowed.call_MoreThanTwoSec._Y_.next))
(define-fun .def_1174 () Bool (and .def_1171 .def_1173))
(define-fun .def_1175 () Bool (= call_cc_allowed.ccall.next .def_1174))
(define-fun .def_1152 () Bool (= call_PosEdge4.flby.next call_PosEdge4._Y_.next))
(define-fun .def_1150 () Bool (= call_PosEdge3.flby.next call_PosEdge3._Y_.next))
(define-fun .def_1148 () Bool (= call_PosEdge2.flby.next call_PosEdge2._Y_.next))
(define-fun .def_1146 () Bool (= call_PosEdge.flby.next call_PosEdge._Y_.next))
(define-fun .def_1143 () Bool (or param_ccr.next call__main_.call_one_button_accept.ite.next))
(define-fun .def_1140 () Bool (= call__main_.call_one_button_accept.ite.next call__main_.call_one_button_accept.call_AtLeastOnceSince.XsinceY.next))
(define-fun .def_1142 () Bool (or .def_1140 .def_1141))
(define-fun .def_1144 () Bool (and .def_1142 .def_1143))
(define-fun .def_1136 () Bool (or ite4.next call_Edge2._Y_.next))
(define-fun .def_1132 () Bool (not call_PosEdge5._Y_.next))
(define-fun .def_1127 () Bool (not param_ccd.next))
(define-fun .def_1126 () Bool (not call_Edge._Y_.next))
(define-fun .def_1128 () Bool (and .def_1126 .def_1127))
(define-fun .def_1130 () Bool (and .def_1128 call_PosEdge6._Y_.next))
(define-fun .def_1131 () Bool (= ite3.next .def_1130))
(define-fun .def_1133 () Bool (or .def_1131 .def_1132))
(define-fun .def_1124 () Bool (or ite3.next call_PosEdge5._Y_.next))
(define-fun .def_1134 () Bool (and .def_1124 .def_1133))
(define-fun .def_1120 () Bool (not call_cc_allowed.ccall.next))
(define-fun .def_1121 () Bool (or ite2.next .def_1120))
(define-fun .def_1116 () Bool (not call_PosEdge._Y_.next))
(define-fun .def_1112 () Bool (or call_PosEdge2._Y_.next call_PosEdge3._Y_.next))
(define-fun .def_1114 () Bool (or .def_1112 call_PosEdge4._Y_.next))
(define-fun .def_1115 () Bool (= ite.next .def_1114))
(define-fun .def_1117 () Bool (or .def_1115 .def_1116))
(define-fun .def_1109 () Bool (or ite.next call_PosEdge._Y_.next))
(define-fun .def_1118 () Bool (and .def_1109 .def_1117))
(define-fun .def_1106 () Bool (= flby.next env.next))
(define-fun .def_1102 () Bool (= cca.next call__main_.cca.next))
(define-fun .def_1092 () Bool (not cca.next))
(define-fun .def_1097 () Bool (= ite2.next .def_1092))
(define-fun .def_1099 () Bool (or .def_1097 call_cc_allowed.ccall.next))
(define-fun .def_1095 () Bool (not call_Edge2._Y_.next))
(define-fun .def_1093 () Bool (= ite4.next .def_1092))
(define-fun .def_1096 () Bool (or .def_1093 .def_1095))
(define-fun .def_1100 () Bool (and .def_1096 .def_1099))
(define-fun .def_1103 () Bool (and .def_1100 .def_1102))
(define-fun .def_1090 () Bool (= ccont.next call__main_.ccont.next))
(define-fun .def_1088 () Bool (= p4.next ite4.next))
(define-fun .def_1085 () Bool (= p3.next ite3.next))
(define-fun .def_1082 () Bool (= p2.next ite2.next))
(define-fun .def_1079 () Bool (= p1.next ite.next))
(define-fun .def_1072 () Bool (and p1.next p2.next))
(define-fun .def_1074 () Bool (and .def_1072 p3.next))
(define-fun .def_1076 () Bool (and .def_1074 p4.next))
(define-fun .def_1077 () Bool (= _OK_.next .def_1076))
(define-fun .def_1080 () Bool (and .def_1077 .def_1079))
(define-fun .def_1083 () Bool (and .def_1080 .def_1082))
(define-fun .def_1086 () Bool (and .def_1083 .def_1085))
(define-fun .def_1089 () Bool (and .def_1086 .def_1088))
(define-fun .def_1091 () Bool (and .def_1089 .def_1090))
(define-fun .def_1104 () Bool (and .def_1091 .def_1103))
(define-fun .def_1107 () Bool (and .def_1104 .def_1106))
(define-fun .def_1119 () Bool (and .def_1107 .def_1118))
(define-fun .def_1122 () Bool (and .def_1119 .def_1121))
(define-fun .def_1135 () Bool (and .def_1122 .def_1134))
(define-fun .def_1137 () Bool (and .def_1135 .def_1136))
(define-fun .def_1145 () Bool (and .def_1137 .def_1144))
(define-fun .def_1147 () Bool (and .def_1145 .def_1146))
(define-fun .def_1149 () Bool (and .def_1147 .def_1148))
(define-fun .def_1151 () Bool (and .def_1149 .def_1150))
(define-fun .def_1153 () Bool (and .def_1151 .def_1152))
(define-fun .def_1176 () Bool (and .def_1153 .def_1175))
(define-fun .def_1178 () Bool (and .def_1176 .def_1177))
(define-fun .def_1180 () Bool (and .def_1178 .def_1179))
(define-fun .def_1182 () Bool (and .def_1180 .def_1181))
(define-fun .def_1184 () Bool (and .def_1182 .def_1183))
(define-fun .def_1186 () Bool (and .def_1184 .def_1185))
(define-fun .def_1188 () Bool (and .def_1186 .def_1187))
(define-fun .def_1190 () Bool (and .def_1188 .def_1189))
(define-fun .def_1192 () Bool (and .def_1190 .def_1191))
(define-fun .def_1203 () Bool (and .def_1192 .def_1202))
(define-fun .def_1209 () Bool (and .def_1203 .def_1208))
(define-fun .def_1211 () Bool (and .def_1209 .def_1210))
(define-fun .def_1213 () Bool (and .def_1211 .def_1212))
(define-fun .def_1215 () Bool (and .def_1213 .def_1214))
(define-fun .def_1228 () Bool (and .def_1215 .def_1227))
(define-fun .def_1230 () Bool (and .def_1228 .def_1229))
(define-fun .def_1232 () Bool (and .def_1230 .def_1231))
(define-fun .def_1235 () Bool (and .def_1232 .def_1234))
(define-fun .def_1248 () Bool (and .def_1235 .def_1247))
(define-fun .def_1251 () Bool (and .def_1248 .def_1250))
(define-fun .def_1253 () Bool (and .def_1251 .def_1252))
(define-fun .def_1265 () Bool (and .def_1253 .def_1264))
(define-fun .def_1270 () Bool (and .def_1265 .def_1269))
(define-fun .def_1272 () Bool (and .def_1270 .def_1271))
(define-fun .def_930 () Bool (= call__main_.call_one_button_accept.call_AtLeastOnceSince.XsinceY call__main_.call_one_button_accept.call_AtLeastOnceSince.ite))
(define-fun .def_927 () Bool (= call__main_.call_one_button_accept.call_PosEdge.flby call__main_.call_one_button_accept.call_PosEdge._Y_))
(define-fun .def_925 () Bool (= call__main_.call_one_button_accept.call_AtLeastOnceSince.flby call__main_.call_one_button_accept.call_AtLeastOnceSince.ite))
(define-fun .def_926 () Bool (or call__main_.call_one_button_accept.call_PosEdge._Y_ .def_925))
(define-fun .def_928 () Bool (and .def_926 .def_927))
(define-fun .def_914 () Bool (not param_ccsetd))
(define-fun .def_919 () Bool (and param_ccseti .def_914))
(define-fun .def_793 () Bool (not param_ccr))
(define-fun .def_920 () Bool (and .def_793 .def_919))
(define-fun .def_912 () Bool (not param_ccseti))
(define-fun .def_917 () Bool (and .def_912 param_ccsetd))
(define-fun .def_918 () Bool (and .def_793 .def_917))
(define-fun .def_921 () Bool (or .def_918 .def_920))
(define-fun .def_915 () Bool (and .def_912 .def_914))
(define-fun .def_916 () Bool (and param_ccr .def_915))
(define-fun .def_922 () Bool (or .def_916 .def_921))
(define-fun .def_923 () Bool (= call__main_.call_one_button_accept.call_one_button.ob .def_922))
(define-fun .def_909 () Bool (= call__main_.call_one_button_accept.call_prev_no_button.flby call__main_.call_one_button_accept.call_prev_no_button.pnb))
(define-fun .def_907 () Bool (= call__main_.call_one_button_accept.pnb call__main_.call_one_button_accept.call_prev_no_button.pnb))
(define-fun .def_903 () Bool (= call__main_.call_one_button_accept.ob call__main_.call_one_button_accept.call_one_button.ob))
(define-fun .def_899 () Bool (= call__main_.call_one_button_accept.ite call__main_.call_one_button_accept.ite2))
(define-fun .def_896 () Bool (and call__main_.call_one_button_accept.ob call__main_.call_one_button_accept.pnb))
(define-fun .def_898 () Bool (not .def_896))
(define-fun .def_900 () Bool (or .def_898 .def_899))
(define-fun .def_893 () Bool (not call__main_.call_one_button_accept.ite2))
(define-fun .def_897 () Bool (or .def_893 .def_896))
(define-fun .def_901 () Bool (and .def_897 .def_900))
(define-fun .def_904 () Bool (and .def_901 .def_903))
(define-fun .def_891 () Bool (= call__main_.call_one_button_accept.oba call__main_.call_one_button_accept.ite2))
(define-fun .def_888 () Bool (= call__main_.call_cc_allowed.call_MoreThanTwoSec.flby2 call__main_.call_cc_allowed.call_MoreThanTwoSec._Y_))
(define-fun .def_886 () Bool (= call__main_.call_cc_allowed.call_MoreThanOneSec.flby call__main_.call_cc_allowed.call_MoreThanOneSec._Y_))
(define-fun .def_807 () Bool (not param_bpa))
(define-fun .def_873 () Bool (and call__main_.ccont .def_807))
(define-fun .def_874 () Bool (and param_battok .def_873))
(define-fun .def_875 () Bool (and param_gearok .def_874))
(define-fun .def_876 () Bool (and param_qfok .def_875))
(define-fun .def_878 () Bool (and .def_876 call__main_.call_cc_allowed.call_MoreThanOneSec._Y_))
(define-fun .def_818 () Bool (<= 35 param_vs))
(define-fun .def_879 () Bool (and .def_818 .def_878))
(define-fun .def_820 () Bool (<= param_vs 200))
(define-fun .def_880 () Bool (and .def_820 .def_879))
(define-fun .def_882 () Bool (and .def_880 call__main_.call_cc_allowed.call_MoreThanTwoSec._Y_))
(define-fun .def_825 () Bool (not param_cccanc))
(define-fun .def_883 () Bool (and .def_825 .def_882))
(define-fun .def_884 () Bool (= call__main_.call_cc_allowed.ccall .def_883))
(define-fun .def_871 () Bool (= call__main_.call_PosEdge2.flby call__main_.call_PosEdge2._Y_))
(define-fun .def_868 () Bool (= call__main_.call_PosEdge.flby call__main_.call_PosEdge._Y_))
(define-fun .def_865 () Bool (= call__main_.call_Edge.flby call__main_.call_Edge._Y_))
(define-fun .def_861 () Bool (not call__main_.call_one_button_accept.call_PosEdge._Y_))
(define-fun .def_859 () Bool (= call__main_.param call__main_.call_one_button_accept.call_AtLeastOnceSince.ite))
(define-fun .def_862 () Bool (or .def_859 .def_861))
(define-fun .def_854 () Bool (= call__main_.ccall call__main_.call_cc_allowed.ccall))
(define-fun .def_848 () Bool (and call__main_.ccall call__main_.call_one_button_accept.oba))
(define-fun .def_850 () Bool (not .def_848))
(define-fun .def_851 () Bool (or call__main_.ite4 .def_850))
(define-fun .def_846 () Bool (= call__main_.ite3 call__main_.ite4))
(define-fun .def_849 () Bool (or .def_846 .def_848))
(define-fun .def_852 () Bool (and .def_849 .def_851))
(define-fun .def_855 () Bool (and .def_852 .def_854))
(define-fun .def_843 () Bool (= call__main_.flby2 call__main_.cca))
(define-fun .def_841 () Bool (= call__main_.flby call__main_.ccont))
(define-fun .def_839 () Bool (= call_Edge2.flby call_Edge2._Y_))
(define-fun .def_837 () Bool (= call_PosEdge6.flby call_PosEdge6._Y_))
(define-fun .def_835 () Bool (= call_Edge.flby call_Edge._Y_))
(define-fun .def_833 () Bool (= call_PosEdge5.flby call_PosEdge5._Y_))
(define-fun .def_831 () Bool (= call_cc_allowed.call_MoreThanTwoSec.flby2 call_cc_allowed.call_MoreThanTwoSec._Y_))
(define-fun .def_829 () Bool (= call_cc_allowed.call_MoreThanOneSec.flby call_cc_allowed.call_MoreThanOneSec._Y_))
(define-fun .def_808 () Bool (and ccont .def_807))
(define-fun .def_810 () Bool (and .def_808 param_battok))
(define-fun .def_812 () Bool (and .def_810 param_gearok))
(define-fun .def_814 () Bool (and .def_812 param_qfok))
(define-fun .def_816 () Bool (and .def_814 call_cc_allowed.call_MoreThanOneSec._Y_))
(define-fun .def_819 () Bool (and .def_816 .def_818))
(define-fun .def_821 () Bool (and .def_819 .def_820))
(define-fun .def_823 () Bool (and .def_821 call_cc_allowed.call_MoreThanTwoSec._Y_))
(define-fun .def_826 () Bool (and .def_823 .def_825))
(define-fun .def_827 () Bool (= call_cc_allowed.ccall .def_826))
(define-fun .def_804 () Bool (= call_PosEdge4.flby call_PosEdge4._Y_))
(define-fun .def_802 () Bool (= call_PosEdge3.flby call_PosEdge3._Y_))
(define-fun .def_800 () Bool (= call_PosEdge2.flby call_PosEdge2._Y_))
(define-fun .def_798 () Bool (= call_PosEdge.flby call_PosEdge._Y_))
(define-fun .def_795 () Bool (or call__main_.call_one_button_accept.ite param_ccr))
(define-fun .def_791 () Bool (= call__main_.call_one_button_accept.ite call__main_.call_one_button_accept.call_AtLeastOnceSince.XsinceY))
(define-fun .def_794 () Bool (or .def_791 .def_793))
(define-fun .def_796 () Bool (and .def_794 .def_795))
(define-fun .def_787 () Bool (or ite4 call_Edge2._Y_))
(define-fun .def_783 () Bool (not call_PosEdge5._Y_))
(define-fun .def_778 () Bool (not param_ccd))
(define-fun .def_776 () Bool (not call_Edge._Y_))
(define-fun .def_779 () Bool (and .def_776 .def_778))
(define-fun .def_781 () Bool (and .def_779 call_PosEdge6._Y_))
(define-fun .def_782 () Bool (= ite3 .def_781))
(define-fun .def_784 () Bool (or .def_782 .def_783))
(define-fun .def_774 () Bool (or ite3 call_PosEdge5._Y_))
(define-fun .def_785 () Bool (and .def_774 .def_784))
(define-fun .def_770 () Bool (not call_cc_allowed.ccall))
(define-fun .def_771 () Bool (or ite2 .def_770))
(define-fun .def_766 () Bool (not call_PosEdge._Y_))
(define-fun .def_762 () Bool (or call_PosEdge2._Y_ call_PosEdge3._Y_))
(define-fun .def_764 () Bool (or .def_762 call_PosEdge4._Y_))
(define-fun .def_765 () Bool (= ite .def_764))
(define-fun .def_767 () Bool (or .def_765 .def_766))
(define-fun .def_759 () Bool (or ite call_PosEdge._Y_))
(define-fun .def_768 () Bool (and .def_759 .def_767))
(define-fun .def_756 () Bool (= flby env))
(define-fun .def_752 () Bool (= cca call__main_.cca))
(define-fun .def_742 () Bool (not cca))
(define-fun .def_747 () Bool (= ite2 .def_742))
(define-fun .def_749 () Bool (or .def_747 call_cc_allowed.ccall))
(define-fun .def_745 () Bool (not call_Edge2._Y_))
(define-fun .def_743 () Bool (= ite4 .def_742))
(define-fun .def_746 () Bool (or .def_743 .def_745))
(define-fun .def_750 () Bool (and .def_746 .def_749))
(define-fun .def_753 () Bool (and .def_750 .def_752))
(define-fun .def_739 () Bool (= ccont call__main_.ccont))
(define-fun .def_735 () Bool (= p4 ite4))
(define-fun .def_732 () Bool (= p3 ite3))
(define-fun .def_729 () Bool (= p2 ite2))
(define-fun .def_726 () Bool (= p1 ite))
(define-fun .def_719 () Bool (and p1 p2))
(define-fun .def_721 () Bool (and .def_719 p3))
(define-fun .def_723 () Bool (and .def_721 p4))
(define-fun .def_724 () Bool (= _OK_ .def_723))
(define-fun .def_727 () Bool (and .def_724 .def_726))
(define-fun .def_730 () Bool (and .def_727 .def_729))
(define-fun .def_733 () Bool (and .def_730 .def_732))
(define-fun .def_736 () Bool (and .def_733 .def_735))
(define-fun .def_740 () Bool (and .def_736 .def_739))
(define-fun .def_754 () Bool (and .def_740 .def_753))
(define-fun .def_757 () Bool (and .def_754 .def_756))
(define-fun .def_769 () Bool (and .def_757 .def_768))
(define-fun .def_772 () Bool (and .def_769 .def_771))
(define-fun .def_786 () Bool (and .def_772 .def_785))
(define-fun .def_788 () Bool (and .def_786 .def_787))
(define-fun .def_797 () Bool (and .def_788 .def_796))
(define-fun .def_799 () Bool (and .def_797 .def_798))
(define-fun .def_801 () Bool (and .def_799 .def_800))
(define-fun .def_803 () Bool (and .def_801 .def_802))
(define-fun .def_805 () Bool (and .def_803 .def_804))
(define-fun .def_828 () Bool (and .def_805 .def_827))
(define-fun .def_830 () Bool (and .def_828 .def_829))
(define-fun .def_832 () Bool (and .def_830 .def_831))
(define-fun .def_834 () Bool (and .def_832 .def_833))
(define-fun .def_836 () Bool (and .def_834 .def_835))
(define-fun .def_838 () Bool (and .def_836 .def_837))
(define-fun .def_840 () Bool (and .def_838 .def_839))
(define-fun .def_842 () Bool (and .def_840 .def_841))
(define-fun .def_844 () Bool (and .def_842 .def_843))
(define-fun .def_856 () Bool (and .def_844 .def_855))
(define-fun .def_863 () Bool (and .def_856 .def_862))
(define-fun .def_866 () Bool (and .def_863 .def_865))
(define-fun .def_869 () Bool (and .def_866 .def_868))
(define-fun .def_872 () Bool (and .def_869 .def_871))
(define-fun .def_885 () Bool (and .def_872 .def_884))
(define-fun .def_887 () Bool (and .def_885 .def_886))
(define-fun .def_889 () Bool (and .def_887 .def_888))
(define-fun .def_892 () Bool (and .def_889 .def_891))
(define-fun .def_905 () Bool (and .def_892 .def_904))
(define-fun .def_908 () Bool (and .def_905 .def_907))
(define-fun .def_910 () Bool (and .def_908 .def_909))
(define-fun .def_924 () Bool (and .def_910 .def_923))
(define-fun .def_929 () Bool (and .def_924 .def_928))
(define-fun .def_931 () Bool (and .def_929 .def_930))
(define-fun .def_1273 () Bool (and .def_931 .def_1272))
(define-fun .def_1065 () Bool (or call__main_.call_one_button_accept.call_AtLeastOnceSince.XsinceY call__main_.param.next))
(define-fun .def_1067 () Bool (= .def_1065 call__main_.call_one_button_accept.call_AtLeastOnceSince.flby.next))
(define-fun .def_1010 () Bool (not call__main_.ccont))
(define-fun .def_1061 () Bool (or .def_1010 call__main_.ccont.next))
(define-fun .def_1063 () Bool (= .def_1061 call__main_.call_one_button_accept.call_PosEdge.flby.next))
(define-fun .def_1056 () Bool (and .def_793 .def_915))
(define-fun .def_1058 () Bool (= .def_1056 call__main_.call_one_button_accept.call_prev_no_button.flby.next))
(define-fun .def_1052 () Bool (and call__main_.call_cc_allowed.call_MoreThanTwoSec.flby param_accok.next))
(define-fun .def_1054 () Bool (= .def_1052 call__main_.call_cc_allowed.call_MoreThanTwoSec.flby2.next))
(define-fun .def_978 () Bool (and param_accok param_accok.next))
(define-fun .def_1050 () Bool (= .def_978 call__main_.call_cc_allowed.call_MoreThanTwoSec.flby.next))
(define-fun .def_971 () Bool (and param_sdok.next param_sdok))
(define-fun .def_1047 () Bool (= .def_971 call__main_.call_cc_allowed.call_MoreThanOneSec.flby.next))
(define-fun .def_1001 () Bool (not param_cconoff))
(define-fun .def_1002 () Bool (or param_cconoff.next .def_1001))
(define-fun .def_1044 () Bool (= .def_1002 call__main_.call_PosEdge2.flby.next))
(define-fun .def_1041 () Bool (= .def_1002 call__main_.call_PosEdge.flby.next))
(define-fun .def_646 () Bool (not param_igsw))
(define-fun .def_994 () Bool (and .def_646 param_igsw.next))
(define-fun .def_992 () Bool (not param_igsw.next))
(define-fun .def_993 () Bool (and param_igsw .def_992))
(define-fun .def_995 () Bool (or .def_993 .def_994))
(define-fun .def_1038 () Bool (= .def_995 call__main_.call_Edge.flby.next))
(define-fun .def_1035 () Bool (= call__main_.flby2.next call__main_.ite4.next))
(define-fun .def_1031 () Bool (= call__main_.cca call__main_.param.next))
(define-fun .def_1028 () Bool (= call__main_.ite2.next call__main_.flby.next))
(define-fun .def_1024 () Bool (not call__main_.ite3.next))
(define-fun .def_1025 () Bool (or call__main_.ccall.next .def_1024))
(define-fun .def_1021 () Bool (not call__main_.ccall.next))
(define-fun .def_1019 () Bool (= call__main_.cca call__main_.ite3.next))
(define-fun .def_1022 () Bool (or .def_1019 .def_1021))
(define-fun .def_1012 () Bool (and .def_1010 call__main_.call_PosEdge2._Y_.next))
(define-fun .def_1014 () Bool (not .def_1012))
(define-fun .def_1015 () Bool (or call__main_.ite.next .def_1014))
(define-fun .def_1009 () Bool (= call__main_.ccont call__main_.ite.next))
(define-fun .def_1013 () Bool (or .def_1009 .def_1012))
(define-fun .def_1016 () Bool (and .def_1013 .def_1015))
(define-fun .def_1007 () Bool (= .def_995 call_Edge2.flby.next))
(define-fun .def_1004 () Bool (= .def_1002 call_PosEdge6.flby.next))
(define-fun .def_997 () Bool (= .def_995 call_Edge.flby.next))
(define-fun .def_985 () Bool (not ccont))
(define-fun .def_987 () Bool (or .def_985 ccont.next))
(define-fun .def_989 () Bool (= .def_987 call_PosEdge5.flby.next))
(define-fun .def_981 () Bool (and call_cc_allowed.call_MoreThanTwoSec.flby param_accok.next))
(define-fun .def_983 () Bool (= .def_981 call_cc_allowed.call_MoreThanTwoSec.flby2.next))
(define-fun .def_979 () Bool (= call_cc_allowed.call_MoreThanTwoSec.flby.next .def_978))
(define-fun .def_973 () Bool (= .def_971 call_cc_allowed.call_MoreThanOneSec.flby.next))
(define-fun .def_965 () Bool (or .def_793 param_ccr.next))
(define-fun .def_967 () Bool (= .def_965 call_PosEdge4.flby.next))
(define-fun .def_960 () Bool (or .def_914 param_ccsetd.next))
(define-fun .def_962 () Bool (= .def_960 call_PosEdge3.flby.next))
(define-fun .def_955 () Bool (or .def_912 param_ccseti.next))
(define-fun .def_957 () Bool (= .def_955 call_PosEdge2.flby.next))
(define-fun .def_950 () Bool (or .def_742 cca.next))
(define-fun .def_952 () Bool (= .def_950 call_PosEdge.flby.next))
(define-fun .def_944 () Bool (not call__main_.ite2.next))
(define-fun .def_940 () Bool (and call__main_.ccont call__main_.call_PosEdge._Y_.next))
(define-fun .def_938 () Bool (or param_ccd.next call__main_.call_Edge._Y_.next))
(define-fun .def_941 () Bool (or .def_938 .def_940))
(define-fun .def_943 () Bool (not .def_941))
(define-fun .def_945 () Bool (or .def_943 .def_944))
(define-fun .def_935 () Bool (= call__main_.ite.next call__main_.ite2.next))
(define-fun .def_942 () Bool (or .def_935 .def_941))
(define-fun .def_946 () Bool (and .def_942 .def_945))
(define-fun .def_948 () Bool (and .def_946 flby.next))
(define-fun .def_953 () Bool (and .def_948 .def_952))
(define-fun .def_958 () Bool (and .def_953 .def_957))
(define-fun .def_963 () Bool (and .def_958 .def_962))
(define-fun .def_968 () Bool (and .def_963 .def_967))
(define-fun .def_974 () Bool (and .def_968 .def_973))
(define-fun .def_980 () Bool (and .def_974 .def_979))
(define-fun .def_984 () Bool (and .def_980 .def_983))
(define-fun .def_990 () Bool (and .def_984 .def_989))
(define-fun .def_998 () Bool (and .def_990 .def_997))
(define-fun .def_1005 () Bool (and .def_998 .def_1004))
(define-fun .def_1008 () Bool (and .def_1005 .def_1007))
(define-fun .def_1017 () Bool (and .def_1008 .def_1016))
(define-fun .def_1023 () Bool (and .def_1017 .def_1022))
(define-fun .def_1026 () Bool (and .def_1023 .def_1025))
(define-fun .def_1029 () Bool (and .def_1026 .def_1028))
(define-fun .def_1032 () Bool (and .def_1029 .def_1031))
(define-fun .def_1036 () Bool (and .def_1032 .def_1035))
(define-fun .def_1039 () Bool (and .def_1036 .def_1038))
(define-fun .def_1042 () Bool (and .def_1039 .def_1041))
(define-fun .def_1045 () Bool (and .def_1042 .def_1044))
(define-fun .def_1048 () Bool (and .def_1045 .def_1047))
(define-fun .def_1051 () Bool (and .def_1048 .def_1050))
(define-fun .def_1055 () Bool (and .def_1051 .def_1054))
(define-fun .def_1059 () Bool (and .def_1055 .def_1058))
(define-fun .def_1064 () Bool (and .def_1059 .def_1063))
(define-fun .def_1068 () Bool (and .def_1064 .def_1067))
(define-fun .def_1274 () Bool (and .def_1068 .def_1273))
(assert .def_1274)
